##----------------------------------------------------------------------------##
# Add Simulation Info! #
##----------------------------------------------------------------------------##

##----------------------------------------------------------------------------##
clear
##----------------------------------------------------------------------------##

##---------------------------Variable Setup-----------------------------------##
variable timestep equal 0.0025
variable stencil_points equal 3
variable Temp equal 300
##----------------------------------------------------------------------------##

##-----------------------Simulation Space Setup-------------------------------##
units          micro
dimension      3
boundary       p p f
atom_style     full
##----------------------------------------------------------------------------##

##--------------------Reading Cell Atom Data + Setting Masses -----------------##
read_data diffusedsphre-longsimcell.lmpdat extra/bond/types 1 extra/bond/per/atom 5

mass * 1

neighbor 3.5 bin
##----------------------------------------------------------------------------##

##-----------------------Group Setup------------------------------------------##
region Right_Grip block EDGE -3.5 EDGE EDGE EDGE EDGE
region Left_Grip block 3.5 EDGE EDGE EDGE EDGE EDGE
region Cell_Body block -3.5 3.5 EDGE EDGE EDGE EDGE

group Cell_1 type 1 1
group Right_Grip region Right_Grip
group Left_Grip region Left_Grip
group Cell_Body region Cell_Body

fix mysf1 Right_Grip setforce 0 NULL 0
fix mysf2 Left_Grip setforce 0 NULL 0
velocity Right_Grip set 0 NULL 0
velocity Left_Grip set 0 NULL 0
velocity Right_Grip set 0.0005 NULL 0
velocity Left_Grip set -0.0005 NULL 0

##-------------------Pair and Bond Style and Coeff Setup-----------------------##
pair_style	bpm/spring
pair_coeff	1 1 0.0 1.0 1.0

bond_style harmonic
bond_coeff 1 10.0 0.9
create_bonds many Cell_1 Cell_1 1 0.5 .9     # Create Bonds here bc coeffs need to be set first
##----------------------------------------------------------------------------##

##---------------------------------Fixes--------------------------------------##
#fix   FL all lb/fluid 1 1.0 0.0009982071 stencil ${stencil_points} dx 1.2 dm .001 zwall_velocity 1 -1 #dumpxdmf 500 fflow 0
#fix   2 all lb/viscous
fix   3 all nve
fix 4 all lb/momentum 1
##----------------------------------------------------------------------------##

##----------------------------------------------------------------------------##

##--------------------Final Run Settings + Start------------------------------##
timestep    ${timestep}
thermo      50
dump			output		all		custom	50	dump.Flow_V3 id	type x y z vx	vy	vz	fx	fy	fz
#dump_modify output element cell
run         50000
##----------------------------------------------------------------------------##
##----------------------------------------------------------------------------##
